[VALIDATOR STDOUT]
Checking plan: /home/jfan5/Safety-gen/runs/benchmark/optic/blocksworld_20260205_112402/blocksworld/optic_results/bw_ops3_n05_seed5001.plan
Plan executed successfully - checking goal
Plan valid
Final value: 10 

Successful plans:
Value: 10
 /home/jfan5/Safety-gen/runs/benchmark/optic/blocksworld_20260205_112402/blocksworld/optic_results/bw_ops3_n05_seed5001.plan 10
